p tw 77 283
0 1
0 2
0 12
0 35
0 21
0 51
0 4
0 18
0 3
0 32
1 2
1 15
1 34
1 33
1 51
1 53
1 66
1 67
2 20
2 35
3 4
3 5
3 14
3 25
3 19
3 45
3 49
3 64
3 26
3 35
3 32
3 8
3 69
4 5
4 15
4 16
4 33
4 54
4 18
4 56
4 68
4 9
4 20
4 19
4 27
4 40
4 75
4 66
4 74
5 50
5 54
5 63
5 64
5 9
5 31
6 7
6 8
6 26
6 27
6 50
6 51
6 28
6 47
6 49
6 52
6 64
6 39
6 73
7 8
7 23
7 64
8 69
9 10
9 11
9 31
9 26
9 63
9 20
10 11
10 41
10 42
10 26
10 66
10 29
10 38
10 51
10 63
11 23
11 24
11 51
11 52
11 12
11 35
11 28
12 13
12 14
12 35
12 29
12 48
12 15
12 57
12 28
13 14
13 21
13 22
13 34
13 61
13 31
13 35
13 70
13 71
13 38
13 69
13 76
14 19
14 20
14 25
15 16
15 17
15 18
15 34
15 33
15 49
15 50
15 57
15 22
15 73
16 62
16 63
16 45
16 64
16 44
16 65
17 18
17 55
17 62
17 59
17 76
18 39
18 69
19 20
19 45
19 56
19 73
19 27
20 26
20 27
20 35
20 65
21 22
21 39
21 40
21 51
21 23
21 32
21 50
21 59
21 31
22 59
22 60
22 73
23 24
23 45
23 58
23 64
23 34
23 35
23 32
23 57
23 59
23 74
25 37
25 38
25 63
25 65
26 27
26 66
26 63
26 35
27 56
27 65
27 28
27 43
28 29
28 30
28 39
28 40
28 34
28 61
29 30
29 31
29 36
29 48
29 38
30 46
30 47
31 32
31 33
31 36
31 48
31 35
31 50
32 33
32 48
32 57
33 54
33 53
33 61
34 61
34 35
34 41
34 38
35 56
35 71
36 43
36 44
37 38
37 67
37 73
38 66
38 72
38 56
38 74
39 40
39 69
39 73
40 75
41 42
41 61
43 44
43 56
43 45
43 62
44 46
44 57
44 65
45 58
45 62
45 64
46 47
46 57
47 49
48 52
48 55
48 60
48 66
49 50
49 64
50 51
50 54
50 59
51 52
51 53
51 70
51 63
52 55
52 64
52 70
53 61
55 56
55 57
55 62
56 57
56 65
56 68
56 73
56 71
56 74
59 60
59 74
59 76
60 66
62 63
63 65
63 64
66 67
66 72
66 74
67 73
69 73
69 76
70 71
73 76
